CMD:
./solvers/bin/cadical --plain --no-reduce -t 1600 ./data/cnfs//qspiflash_dualflexpress_divthree-p005/qspiflash_dualflexpress_divthree-p005.18.cnf

c --- [ banner ] -------------------------------------------------------------
c 
c CaDiCaL SAT Solver
c Copyright (c) 2016-2024
c A. Biere, M. Fleury, N. Froleyks, K. Fazekas, F. Pollitt, T. Faller
c JKU Linz, University of Freiburg, TU Wien
c 
c Version 2.1.3 5296d3d2a9bf48c154ab2acb5e44625776d821bf
c g++ (Gentoo 12.3.1_p20230526 p2) 12.3.1 20230526 -Wall -Wextra -O3 -DNDEBUG
c Sat Aug 9 07:26:21 PDT 2025 Linux cedar2.int.cedar.computecanada.ca 5.14.0-362.24.2.el9_3.x86_64 x86_64
c 
c --- [ limit ] --------------------------------------------------------------
c 
c setting time limit to 1600 seconds real time (due to '-t 1600')
c 
c --- [ parsing input ] ------------------------------------------------------
c 
c reading DIMACS file from './data/cnfs//qspiflash_dualflexpress_divthree-p005/qspiflash_dualflexpress_divthree-p005.18.cnf'
c opening file to read './data/cnfs//qspiflash_dualflexpress_divthree-p005/qspiflash_dualflexpress_divthree-p005.18.cnf'
c found 'p cnf 56471 163757' header
c parsed 163757 clauses in 0.03 seconds process time
c 
c --- [ options ] ------------------------------------------------------------
c 
c   --compact=false                (different from default 'true')
c   --decompose=false              (different from default 'true')
c   --deduplicate=false            (different from default 'true')
c   --elim=false                   (different from default 'true')
c   --probe=false                  (different from default 'true')
c   --reduce=false                 (different from default 'true')
c   --subsume=false                (different from default 'true')
c   --ternary=false                (different from default 'true')
c   --transred=false               (different from default 'true')
c   --vivify=false                 (different from default 'true')
c 
c --- [ solving ] ------------------------------------------------------------
c 
c time measured in process time since initialization
c 
c  seconds  reductions  redundant  irredundant
c         MB    restarts       trail       variables
c          level   conflicts       glue         remaining
c 
c *  0.03 28  0 0   0    0    0  0% 0 147477 46124 82%
c {  0.05 28  0 0   0    0    0  0% 0 147477 46124 82%
c i  0.05 28 28 0   0    5    3 20% 2 147477 46108 82%
c i  0.05 28 27 0   0    8    5 21% 2 147477 46103 82%
c i  0.05 28 50 0   0   72   62 25% 4 147477 46096 82%
c i  0.05 29 49 0   0   75   64 25% 4 147477 46091 82%
c i  0.05 29 48 0   0   77   65 25% 4 147477 46048 82%
c i  0.05 29 45 0   0   85   70 25% 3 147477 46037 82%
c i  0.05 29 44 0   0   89   72 25% 3 147477 46032 82%
c i  0.06 29 39 0   4  141  116 25% 4 147477 46019 81%
c i  0.06 29 38 0   4  143  116 25% 4 147477 45983 81%
c i  0.06 29 37 0   4  151  123 25% 3 147477 45969 81%
c i  0.06 29 37 0   4  186  154 27% 3 147477 45956 81%
c i  0.06 29 37 0   4  188  155 27% 3 147477 45925 81%
c i  0.06 29 37 0   4  191  157 27% 3 147477 45912 81%
c i  0.06 29 36 0   4  194  159 27% 3 147477 45869 81%
c i  0.06 29 33 0   4  230  191 26% 3 147477 45849 81%
c i  0.06 29 33 0   4  231  191 26% 3 147477 45848 81%
c i  0.06 29 31 0   4  255  212 26% 3 147477 45833 81%
c i  0.06 29 30 0   4  260  216 26% 3 147477 45804 81%
c 
c  seconds  reductions  redundant  irredundant
c         MB    restarts       trail       variables
c          level   conflicts       glue         remaining
c 
c i  0.06 29 29 0   4  272  227 26% 3 147477 45796 81%
c i  0.06 29 27 0   4  310  262 25% 3 147477 45786 81%
c i  0.06 29 26 0   4  319  269 25% 3 147477 45778 81%
c i  0.07 29 25 0   4  351  298 25% 3 147477 45770 81%
c i  0.07 29 25 0   4  369  315 25% 3 147477 45761 81%
c i  0.08 29 25 0   4  523  439 27% 3 147477 45758 81%
c i  0.08 29 25 0   8  562  474 28% 3 147477 45751 81%
c i  0.09 29 24 0  27  634  542 27% 3 147477 45744 81%
c i  0.09 29 24 0  36  665  570 28% 3 147477 45732 81%
c i  0.09 29 24 0  36  667  571 28% 3 147477 45722 81%
c i  0.09 29 24 0  39  684  582 28% 3 147477 45706 81%
c i  0.10 29 23 0  52  820  701 28% 3 147477 45690 81%
c i  0.10 29 22 0  61  876  748 28% 3 147477 45687 81%
c i  0.12 29 22 0  84  966  829 28% 3 147477 45679 81%
c }  0.12 29 22 0  93 1000  862 28% 3 147477 45671 81%
c [  0.12 29  0 0  93 1000  862  0% 0 147477 45671 81%
c O  0.13 29 390 0  93 1004  866 63% 4 147477 45671 81%
c i  0.19 29 81 0  93 1667 1469 38% 8 147477 45656 81%
c i  0.24 29 54 0  94 2113 1875 35% 7 147477 45644 81%
c i  0.29 29 43 0  94 2630 2318 34% 7 147477 45626 81%
c 
c  seconds  reductions  redundant  irredundant
c         MB    restarts       trail       variables
c          level   conflicts       glue         remaining
c 
c i  0.32 29 38 0  94 2928 2540 34% 7 147477 45625 81%
c i  0.33 29 38 0  94 2958 2566 34% 7 147477 45611 81%
c ]  0.33 29 38 0  94 3000 2602 34% 7 147477 45611 81%
c {  0.33 29 22 0  94 3000 2602 28% 3 147477 45611 81%
c F  0.33 29 22 0  95 3007 2609 28% 3 147477 45611 81%
c i  0.33 29 22 0  95 3012 2609 28% 3 147477 45597 81%
c i  0.33 29 21 0  95 3036 2620 28% 3 147477 45588 81%
c i  0.34 29 21 0 102 3109 2688 28% 3 147477 45547 81%
c i  0.35 29 20 0 115 3166 2731 28% 3 147477 45535 81%
c i  0.35 29 20 0 119 3189 2750 28% 3 147477 45511 81%
c i  0.36 29 20 0 128 3234 2793 28% 4 147477 45447 80%
c i  0.36 29 19 0 151 3337 2878 28% 4 147477 45443 80%
c i  0.37 29 19 0 164 3421 2947 28% 4 147477 44531 79%
c i  0.38 29 19 0 186 3537 3056 28% 4 147477 44469 79%
c i  0.39 29 19 0 208 3627 3134 28% 4 147477 44465 79%
c i  0.39 29 18 0 210 3637 3137 28% 4 147477 44461 79%
c i  0.40 29 18 0 221 3762 3235 29% 4 147477 44450 79%
c i  0.41 30 18 0 234 3836 3303 29% 4 147477 44443 79%
c }  0.43 30 17 0 279 4071 3487 30% 4 147477 44073 78%
c 0  0.43 30 17 0 279 4071 3487 30% 4 147477 44073 78%
c 
c --- [ result ] -------------------------------------------------------------
c 
s UNSATISFIABLE
c 
c --- [ run-time profiling ] -------------------------------------------------
c 
c process time taken by individual solving procedures
c (percentage relative to process time for solving)
c 
c         0.40   99.97% search
c         0.21   52.13% stable
c         0.18   43.90% unstable
c         0.03    7.37% parse
c         0.02    3.91% lucky
c         0.00    0.00% simplify
c   =================================
c         0.40   93.02% solve
c 
c last line shows process time for solving
c (percentage relative to total process time)
c 
c --- [ statistics ] ---------------------------------------------------------
c 
c chronological:              1411        34.66 %  of conflicts
c conflicts:                  4071     10134.08    per second
c decisions:                 11172     27810.83    per second
c fixed:                     12364        21.89 %  of all variables
c learned:                    3902        95.85 %  per conflict
c learned_lits:              84884       100.00 %  learned literals
c minimized:                     0         0.00 %  learned literals
c shrunken:                  16594        19.55 %  learned literals
c minishrunken:              14077        16.58 %  learned literals
c otfs:                         39         0.96 %  of conflict
c propagations:            6205007        15.45 M  per second
c rephased:                      2      2035.50    interval
c restarts:                    279        14.59    interval
c stabilizing:                   1        49.13 %  of conflicts
c subsumed:                    363         0.24 %  of all clauses
c strengthened:                 39         0.03 %  of all clauses
c 
c seconds are measured in process time for solving
c 
c --- [ resources ] ----------------------------------------------------------
c 
c total process time since initialization:         0.43    seconds
c total real time since initialization:            0.44    seconds
c maximum resident set size of process:           30.41    MB
c 
c --- [ shutting down ] ------------------------------------------------------
c 
c exit 20
